(set-logic QF_LRA)
(declare-fun X0 () Real )
(declare-fun Y0 () Real )
(declare-fun X1 () Real )
(declare-fun Y1 () Real )
(declare-fun X2 () Real )
(declare-fun Y2 () Real )
(declare-fun X3 () Real )
(declare-fun Y3 () Real )
(declare-fun X4 () Real )
(declare-fun Y4 () Real )
(declare-fun X5 () Real )
(declare-fun Y5 () Real )
(declare-fun Z () Real )
(assert ( and  
( or ( <= ( + X0 98 ) X1 )  ( <= ( + X1 21 ) X0 )  ( <= ( + Y0 22 ) Y1 )  ( <= ( + Y1 52 ) Y0 )  )
( or ( <= ( + X0 98 ) X2 )  ( <= ( + X2 49 ) X0 )  ( <= ( + Y0 22 ) Y2 )  ( <= ( + Y2 37 ) Y0 )  )
( or ( <= ( + X0 98 ) X3 )  ( <= ( + X3 98 ) X0 )  ( <= ( + Y0 22 ) Y3 )  ( <= ( + Y3 63 ) Y0 )  )
( or ( <= ( + X0 98 ) X4 )  ( <= ( + X4 69 ) X0 )  ( <= ( + Y0 22 ) Y4 )  ( <= ( + Y4 24 ) Y0 )  )
( or ( <= ( + X0 98 ) X5 )  ( <= ( + X5 87 ) X0 )  ( <= ( + Y0 22 ) Y5 )  ( <= ( + Y5 26 ) Y0 )  )
( or ( <= ( + X1 21 ) X2 )  ( <= ( + X2 49 ) X1 )  ( <= ( + Y1 52 ) Y2 )  ( <= ( + Y2 37 ) Y1 )  )
( or ( <= ( + X1 21 ) X3 )  ( <= ( + X3 98 ) X1 )  ( <= ( + Y1 52 ) Y3 )  ( <= ( + Y3 63 ) Y1 )  )
( or ( <= ( + X1 21 ) X4 )  ( <= ( + X4 69 ) X1 )  ( <= ( + Y1 52 ) Y4 )  ( <= ( + Y4 24 ) Y1 )  )
( or ( <= ( + X1 21 ) X5 )  ( <= ( + X5 87 ) X1 )  ( <= ( + Y1 52 ) Y5 )  ( <= ( + Y5 26 ) Y1 )  )
( or ( <= ( + X2 49 ) X3 )  ( <= ( + X3 98 ) X2 )  ( <= ( + Y2 37 ) Y3 )  ( <= ( + Y3 63 ) Y2 )  )
( or ( <= ( + X2 49 ) X4 )  ( <= ( + X4 69 ) X2 )  ( <= ( + Y2 37 ) Y4 )  ( <= ( + Y4 24 ) Y2 )  )
( or ( <= ( + X2 49 ) X5 )  ( <= ( + X5 87 ) X2 )  ( <= ( + Y2 37 ) Y5 )  ( <= ( + Y5 26 ) Y2 )  )
( or ( <= ( + X3 98 ) X4 )  ( <= ( + X4 69 ) X3 )  ( <= ( + Y3 63 ) Y4 )  ( <= ( + Y4 24 ) Y3 )  )
( or ( <= ( + X3 98 ) X5 )  ( <= ( + X5 87 ) X3 )  ( <= ( + Y3 63 ) Y5 )  ( <= ( + Y5 26 ) Y3 )  )
( or ( <= ( + X4 69 ) X5 )  ( <= ( + X5 87 ) X4 )  ( <= ( + Y4 24 ) Y5 )  ( <= ( + Y5 26 ) Y4 )  )
( >= X0 0)
( <= ( + X0 98) Z)
( >= Y0 0)
( <= ( + Y0 22 ) 100)
( >= X1 0)
( <= ( + X1 21) Z)
( >= Y1 0)
( <= ( + Y1 52 ) 100)
( >= X2 0)
( <= ( + X2 49) Z)
( >= Y2 0)
( <= ( + Y2 37 ) 100)
( >= X3 0)
( <= ( + X3 98) Z)
( >= Y3 0)
( <= ( + Y3 63 ) 100)
( >= X4 0)
( <= ( + X4 69) Z)
( >= Y4 0)
( <= ( + Y4 24 ) 100)
( >= X5 0)
( <= ( + X5 87) Z)
( >= Y5 0)
( <= ( + Y5 26 ) 100)
) )
(minimize Z)
(check-sat)
